<?xml version = "1.0" standalone="yes"?>
<!-- This file has been generated by DOcplex version 2.23.222  -->
<CPLEXSolution version="1.0">
 <header
   problemName="CVRP"
   objectiveValue="8802.17"
  />
 <variables>
  <variable name="x_0_2" index="1" value="1.00000"/>
  <variable name="x_0_3" index="2" value="1.00000"/>
  <variable name="x_0_6" index="5" value="1.00000"/>
  <variable name="x_0_9" index="8" value="1.00000"/>
  <variable name="x_0_10" index="9" value="1.00000"/>
  <variable name="x_0_11" index="10" value="1.00000"/>
  <variable name="x_0_13" index="12" value="1.00000"/>
  <variable name="x_0_14" index="13" value="1.00000"/>
  <variable name="x_1_5" index="19" value="1.00000"/>
  <variable name="x_2_0" index="30" value="1.00000"/>
  <variable name="x_3_4" index="48" value="1.00000"/>
  <variable name="x_4_0" index="60" value="1.00000"/>
  <variable name="x_5_0" index="75" value="1.00000"/>
  <variable name="x_6_15" index="104" value="1.00000"/>
  <variable name="x_7_0" index="105" value="1.00000"/>
  <variable name="x_8_0" index="120" value="1.00000"/>
  <variable name="x_9_0" index="135" value="1.00000"/>
  <variable name="x_10_1" index="151" value="1.00000"/>
  <variable name="x_11_0" index="165" value="1.00000"/>
  <variable name="x_12_7" index="187" value="1.00000"/>
  <variable name="x_13_12" index="207" value="1.00000"/>
  <variable name="x_14_8" index="218" value="1.00000"/>
  <variable name="x_15_0" index="225" value="1.00000"/>
  <variable name="u_1" index="240" value="8.00000"/>
  <variable name="u_2" index="241" value="77.00000"/>
  <variable name="u_3" index="242" value="27.00000"/>
  <variable name="u_4" index="243" value="77.00000"/>
  <variable name="u_5" index="244" value="77.00000"/>
  <variable name="u_6" index="245" value="20.00000"/>
  <variable name="u_7" index="246" value="75.00000"/>
  <variable name="u_8" index="247" value="73.00000"/>
  <variable name="u_9" index="248" value="49.00000"/>
  <variable name="u_10" index="249" value="5.00000"/>
  <variable name="u_11" index="250" value="74.00000"/>
  <variable name="u_12" index="251" value="58.00000"/>
  <variable name="u_13" index="252" value="57.00000"/>
  <variable name="u_14" index="253" value="7.00000"/>
  <variable name="u_15" index="254" value="68.00000"/>
 </variables>
</CPLEXSolution>
